n_res = 4;
rc = [ 27, 26, 25, 34 ];
n_tasks = 30;
d = [ 9, 8, 10, 7, 4, 10, 4, 8, 9, 8, 3, 8, 4, 7, 1, 6, 8, 4, 10, 6, 9, 2, 6, 4, 10, 4, 2, 8, 3, 3 ];
rr = [| 4, 0, 9, 0, 8, 0, 10, 5, 4, 2, 3, 3, 8, 2, 0, 1, 3, 0, 10, 7, 10, 2, 0, 9, 8, 5, 1, 7, 5, 0
      | 8, 4, 2, 7, 9, 10, 10, 0, 0, 0, 7, 4, 0, 0, 8, 4, 3, 8, 3, 10, 8, 7, 3, 0, 2, 3, 9, 6, 5, 3
      | 9, 1, 7, 3, 6, 0, 0, 7, 3, 7, 0, 4, 1, 2, 5, 5, 1, 3, 0, 1, 5, 0, 2, 2, 10, 0, 0, 1, 3, 9
      | 0, 9, 0, 0, 6, 3, 9, 0, 0, 10, 10, 9, 2, 9, 2, 9, 8, 3, 6, 0, 0, 1, 0, 0, 5, 10, 10, 3, 3, 2 |];
suc = [ { 2 }, 
        { 1 }, 
        { 4 }, 
        { 3 }, 
        { 6 }, 
        { 5 }, 
        { 8 }, 
        { 7 }, 
        { 10 }, 
        { 9 }, 
        { 12 }, 
        { 11 }, 
        { 14 }, 
        { 13 }, 
        { 16 }, 
        { 15 }, 
        { 18 }, 
        { 17 }, 
        { 20 }, 
        { 19 }, 
        { 22 }, 
        { 21 }, 
        { 24 }, 
        { 23 }, 
        { 26 }, 
        { 25 }, 
        { 28 }, 
        { 27 }, 
        { 30 }, 
        { 29 }]; 
